p td 50 50
6 4
14 7
14 10
15 5
16 4
21 7
22 10
22 15
23 11
24 4
25 24
26 13
27 23
29 25
30 6
31 1
32 16
32 23
33 8
33 29
33 31
33 4
34 18
34 23
34 32
36 4
37 20
37 31
37 27
38 2
38 31
39 29
39 1
40 20
40 6
41 25
42 12
42 8
43 4
43 18
45 2
45 19
45 44
46 19
46 21
46 4
47 14
49 27
49 45
50 45
